Comps = {frontend0, frontend1, backend0, backend1, backend2, database0, database1};
mustComps = {frontend0, frontend1};
Flavs = {tiny, medium, large};
Nodes = {n1, n2, n3};
CRes = {CPU, RAM, storage, bwIn, bwOut};
NRes = {ssl, fwall, encr, avail, latency};
Flav = [{medium, large}, {medium, large}, {tiny, medium, large}, {tiny, medium, large}, {tiny, medium, large}, {large}, {large}];
Uses = [{backend2}, {backend2}, {backend2}, {backend2}, {}, {}, {}, {database0}, {database1}, {database1}, {database0}, {database1}, {database1}, {}, {}];
MAX_BOUND = 1000000;

worstBounds = [0, 0, 0, 0, 0, 0, 0, 0, 0, MAX_BOUND];
bestBounds = [MAX_BOUND - i | i in worstBounds];

comReq = array2d(CompFlavs, Res, [
  2, 489, 276, 834, 855, 1, 0, 1, 97, MAX_BOUND,
  2, 404, 272, 708, 334, 0, 0, 1, 97, MAX_BOUND,
  2, 334, 220, 236, 838, 1, 0, 0, 96, MAX_BOUND,
  2, 465, 462, 581, 376, 1, 1, 1, 95, MAX_BOUND,
  2, 224, 266, 860, 729, 0, 0, 1, 95, MAX_BOUND,
  2, 254, 264, 698, 314, 0, 0, 1, 95, MAX_BOUND,
  4, 422, 317, 434, 614, 0, 1, 0, 97, MAX_BOUND,
  4, 408, 205, 366, 873, 0, 1, 1, 95, MAX_BOUND,
  8, 203, 452, 220, 369, 1, 1, 0, 97, MAX_BOUND,
  4, 443, 213, 505, 347, 1, 1, 0, 95, MAX_BOUND,
  4, 404, 414, 209, 626, 0, 1, 1, 96, MAX_BOUND,
  2, 437, 456, 580, 237, 1, 1, 1, 96, MAX_BOUND,
  2, 222, 427, 605, 436, 0, 0, 1, 97, MAX_BOUND,
  2, 496, 201, 340, 968, 0, 0, 1, 96, MAX_BOUND,
  8, 232, 296, 356, 882, 1, 1, 0, 95, MAX_BOUND,
]);

nodeCap = array2d(Nodes0, Res, [bestBounds[r] | r in Res] ++ [
  16, 79009, 184796, 24970, 23298, 1, 1, 1, 98, 0,
  16, 60620, 284198, 12764, 19733, 1, 0, 0, 99, 0,
  32, 105151, 376863, 19212, 18804, 1, 1, 0, 99, 0,
]);

cost = array2d(Nodes0, Res, [
  0, 0, 0, 0, 0, 0, 0, 0, 0, 0, % no node
  15, 8, 25, 0, 0, 0, 0, 0, 0, 0,
  17, 7, 23, 0, 0, 0, 0, 0, 0, 0,
  16, 9, 23, 0, 0, 0, 0, 0, 0, 0,
]);

cons = array2d(Nodes0, Res, [
  0, 0, 0, 0, 0, 0, 0, 0, 0, 0, % no node
  8, 14, 25, 0, 0, 0, 0, 0, 0, 0,
  47, 4, 26, 0, 0, 0, 0, 0, 0, 0,
  40, 31, 20, 0, 0, 0, 0, 0, 0, 0,
]);

costWeight = 0;
consWeight = 1;

costBudget = 47165;
consBudget = 51712;

depReq = array3d(Comps, Comps, Res, [
  if c1 = frontend0 /\ c2 = backend2 /\ r = N(avail) then
    97
  elseif c1 = frontend1 /\ c2 = backend2 /\ r = N(avail) then
    97
  elseif c1 = frontend0 /\ c2 = backend0 /\ r = N(avail) then
    96
  elseif c1 = frontend0 /\ c2 = backend1 /\ r = N(avail) then
    97
  elseif c1 = frontend1 /\ c2 = backend1 /\ r = N(avail) then
    95
  elseif c1 = frontend1 /\ c2 = backend0 /\ r = N(avail) then
    96
  else
    worstBounds[r]
  endif | c1 in Comps, c2 in Comps, r in Res]);

linkCap = array3d(Nodes0, Nodes0, Res, [
  if ni = 0 \/ nj = 0 then
    bestBounds[r]
  elseif ni = nj /\ r = N(avail) then
    nodeCap[ni,r]
  elseif {ni, nj} = {n1, n3} /\ r = N(avail) then
    98
  elseif {ni, nj} = {n1, n2} /\ r = N(avail) then
    98
  elseif {ni, nj} = {n2, n3} /\ r = N(avail) then
    99
  else
    worstBounds[r]
  endif | ni in Nodes0, nj in Nodes0, r in Res]);

imp = array2d(Comps, Flavs, [
  3, 8, 10,
  3, 5, 9,
  1, 7, 9,
  1, 5, 8,
  1, 4, 7,
  5, 6, 10,
  3, 8, 9,
]);

